40 1 3
489 552 798 893 63 975 799 378 131 132 607 895 123 178 455 117 253 167 644 375 131 461 285 972 498 956 597 397 531 71 846 20 623 644 913 685 618 711 62 749 
842 668 644 965 846 98 81 99 265 725 474 395 185 758 367 683 714 964 79 245 35 925 264 657 568 176 341 186 886 403 935 728 70 579 693 916 676 774 14 941 
498 487 336 683 245 702 366 959 666 445 203 700 369 466 356 937 642 696 122 528 98 57 255 168 635 948 84 311 721 97 252 218 584 587 901 829 289 266 787 955 
7100 9890 6540 790 4550 90 150 960 7040 1370 6230 8020 1930 8780 9700 8280 8250 530 1380 5460 1500 3890 7640 7330 9760 6640 5620 2650 9300 3490 2190 6390 3370 8730 7170 7920 8810 7320 8870 5850 
110740
